(declare-const a Real)
(declare-const b Real)
(declare-const c Real)
(assert (and (and (> a 0.0) (> b 0.0)) (> c 0.0)))
(assert (not (or (and (< a b) (< b c)) (and (< c b) (< b a)))))
(assert (not (or (and (< a c) (< c b)) (and (< b c) (< c a)))))
(assert (not (or (and (< b a) (< a c)) (and (< c a) (< a b)))))
(check-sat)
(model)
